ID_groupA
2609
13241
13241
26084
13241
617
24177
13241
13241
13241
2609
2609
13241
24177
2609
13241
26084
2609
617
24177
2609
2609
13241
2609
2609
2609
24177
13241
26084
13241
617
24177
2609
13241
13241
2609
2609
2609
24177
13241
13241
617
24177
13241
13241
13241
13241
2609
13241
24177
26084
617
26084
26084
26084
26084
2609
2609
26084
26084
617
24177
13241
24177
13241
2609
2609
13241
26084
617
617
617
617
617
617
617
617
24177
24177
24177
24177
2609
24177
24177
13241
13241
2609
2609
13241
24177
13241
2609
2609
13241
24177
13241
2609
13241
24177
2609
2609
24177
2609
2609
24177
